p cnf 50 50
17 -25 -26 0
25 3 41 0
29 -18 41 0
-35 41 -24 0
4 -3 -34 0
-12 23 -10 0
15 -19 23 0
4 32 -1 0
29 26 39 0
-50 -19 -41 0
3 -8 -16 0
47 -34 32 0
6 18 34 0
-37 -50 -46 0
39 29 -47 0
21 5 -3 0
26 35 3 0
8 38 9 0
25 -42 -31 0
-1 50 -43 0
-18 26 29 0
6 42 16 0
19 42 -18 0
-27 -20 2 0
19 -25 -21 0
-40 30 -47 0
-50 27 -16 0
-19 -45 18 0
-11 -18 6 0
-28 -29 36 0
48 -2 23 0
22 -27 25 0
8 49 -10 0
-7 -24 -3 0
33 -36 38 0
-5 -15 27 0
28 -43 -49 0
25 27 1 0
47 -39 28 0
-49 -4 46 0
-32 44 40 0
-28 26 -45 0
-24 30 50 0
10 32 -46 0
-32 -48 -9 0
29 7 -30 0
32 -37 -13 0
12 -14 -23 0
23 28 3 0
10 39 27 0
